Minimize
 obj: - 1 x_0_0 - 3 x_1_0 - 5 x_2_0 - 2 x_3_0 - 4 x_4_0 - 1 x_5_0 

Subject To 
 knapsack_0: + 3 x_0_0 + 2 x_1_0 + 2 x_2_0 + 2 x_3_0 + 3 x_4_0 + 2 x_5_0 
  <= 3.0

Bounds

Binary
 x_0_0 x_1_0 x_2_0 x_3_0 x_4_0 x_5_0
General

End